Geographic Exponential Decay
20 155 38 260 152 259 112 46 39 67 95 58 50 22 36 159 289 37 132 83 93
p edge 320 319
e 0 39 37.0
e 1 207 6.0
e 1 0 1.0
e 2 59 2.0
e 2 1 2.0
e 3 74 2.0
e 3 2 4.0
e 4 233 2.0
e 4 3 4.0
e 5 302 2.0
e 5 4 1.0
e 6 228 2.0
e 6 5 3.0
e 7 111 1.0
e 7 6 2.0
e 8 271 1.0
e 8 7 1.0
e 9 250 1.0
e 9 8 1.0
e 10 84 5.0
e 10 9 5.0
e 11 12 1.0
e 11 10 3.0
e 13 166 8.0
e 13 11 7.0
e 14 272 2.0
e 14 13 7.0
e 15 16 2.0
e 15 14 1.0
e 17 234 1.0
e 17 15 5.0
e 18 82 9.0
e 18 17 11.0
e 19 315 2.0
e 19 18 6.0
e 20 226 1.0
e 20 295 21.0
e 20 19 11.0
e 21 22 6.0
e 21 20 14.0
e 22 120 66.0
e 22 30 10.0
e 22 205 100.0
e 22 121 98.0
e 23 123 5.0
e 23 21 4.0
e 24 215 1.0
e 24 23 2.0
e 25 232 1.0
e 25 24 1.0
e 26 127 4.0
e 26 25 1.0
e 27 141 2.0
e 27 26 1.0
e 28 196 1.0
e 28 27 1.0
e 29 124 2.0
e 29 28 2.0
e 31 316 2.0
e 31 29 2.0
e 32 177 2.0
e 32 31 1.0
e 33 142 21.0
e 33 32 1.0
e 34 156 1.0
e 34 33 3.0
e 35 277 3.0
e 35 34 3.0
e 36 107 56.0
e 36 125 41.0
e 36 119 63.0
e 36 44 77.0
e 36 192 37.0
e 36 35 8.0
e 37 38 73.0
e 37 98 80.0
e 37 318 7.0
e 37 214 59.0
e 37 276 57.0
e 37 36 43.0
e 38 181 2.0
e 38 185 80.0
e 38 218 80.0
e 38 188 93.0
e 39 157 48.0
e 39 40 26.0
e 39 200 25.0
e 39 41 88.0
e 41 148 21.0
e 41 42 11.0
e 43 56 3.0
e 43 37 16.0
e 45 46 9.0
e 45 43 1.0
e 46 115 77.0
e 46 47 87.0
e 46 208 7.0
e 46 189 31.0
e 48 157 24.0
e 49 50 12.0
e 49 45 4.0
e 50 243 34.0
e 50 273 44.0
e 50 51 2.0
e 50 118 9.0
e 52 105 3.0
e 52 49 4.0
e 53 149 3.0
e 53 52 2.0
e 54 229 11.0
e 54 53 4.0
e 55 313 1.0
e 55 54 7.0
e 57 253 3.0
e 57 55 2.0
e 58 60 58.0
e 58 83 76.0
e 58 235 33.0
e 58 265 46.0
e 58 176 87.0
e 58 57 11.0
e 60 159 17.0
e 60 266 26.0
e 61 139 2.0
e 61 58 2.0
e 62 193 1.0
e 62 61 2.0
e 63 64 1.0
e 63 62 2.0
e 65 292 1.0
e 65 63 3.0
e 66 223 2.0
e 66 65 6.0
e 67 251 18.0
e 67 204 35.0
e 67 317 29.0
e 67 199 56.0
e 67 95 5.0
e 67 66 51.0
e 68 190 6.0
e 68 67 96.0
e 69 70 4.0
e 69 68 1.0
e 71 248 1.0
e 71 69 2.0
e 72 73 4.0
e 72 71 1.0
e 75 76 3.0
e 75 72 4.0
e 77 259 47.0
e 77 75 1.0
e 78 79 3.0
e 78 77 2.0
e 80 267 3.0
e 80 78 2.0
e 81 140 8.0
e 81 270 17.0
e 81 80 13.0
e 83 219 3.0
e 83 242 16.0
e 83 154 77.0
e 83 236 69.0
e 85 178 2.0
e 85 81 1.0
e 86 251 17.0
e 86 169 18.0
e 87 158 2.0
e 87 85 1.0
e 88 89 3.0
e 88 87 2.0
e 90 116 1.0
e 90 88 1.0
e 91 92 2.0
e 91 90 2.0
e 93 113 53.0
e 93 240 26.0
e 93 274 1.0
e 93 96 90.0
e 93 163 30.0
e 93 91 23.0
e 94 209 2.0
e 94 93 91.0
e 95 97 69.0
e 95 99 48.0
e 95 110 92.0
e 95 298 26.0
e 100 167 1.0
e 100 94 2.0
e 101 171 1.0
e 101 100 3.0
e 102 194 5.0
e 102 101 3.0
e 103 217 2.0
e 103 102 4.0
e 104 106 4.0
e 104 103 1.0
e 108 175 1.0
e 108 104 1.0
e 109 159 19.0
e 112 159 24.0
e 112 128 1.0
e 112 114 56.0
e 112 216 25.0
e 112 117 48.0
e 122 126 2.0
e 122 108 2.0
e 129 130 3.0
e 129 122 1.0
e 131 153 17.0
e 131 159 80.0
e 132 241 45.0
e 132 202 25.0
e 132 293 2.0
e 132 159 90.0
e 132 133 31.0
e 134 135 35.0
e 134 129 1.0
e 135 237 26.0
e 135 307 6.0
e 136 160 2.0
e 136 134 3.0
e 137 138 1.0
e 137 136 2.0
e 142 297 23.0
e 143 227 1.0
e 143 137 2.0
e 144 275 2.0
e 144 143 1.0
e 145 146 1.0
e 145 144 2.0
e 147 150 3.0
e 147 145 5.0
e 151 152 71.0
e 151 147 10.0
e 152 155 74.0
e 152 263 60.0
e 152 161 59.0
e 152 299 36.0
e 155 180 90.0
e 155 289 40.0
e 155 191 79.0
e 155 162 78.0
e 164 210 2.0
e 164 151 1.0
e 165 168 1.0
e 165 164 3.0
e 170 172 2.0
e 170 165 2.0
e 173 220 1.0
e 173 170 1.0
e 174 179 2.0
e 174 173 3.0
e 182 254 6.0
e 182 174 2.0
e 183 285 4.0
e 183 182 3.0
e 184 186 2.0
e 184 183 4.0
e 187 195 2.0
e 187 184 1.0
e 197 198 1.0
e 197 187 3.0
e 201 202 48.0
e 202 203 40.0
e 206 261 23.0
e 206 211 12.0
e 206 197 13.0
e 212 213 1.0
e 212 206 11.0
e 221 239 1.0
e 221 212 1.0
e 222 224 1.0
e 222 221 2.0
e 225 300 8.0
e 225 222 1.0
e 230 231 2.0
e 230 225 1.0
e 238 290 1.0
e 238 230 2.0
e 244 245 1.0
e 244 238 3.0
e 246 286 1.0
e 246 244 1.0
e 247 249 1.0
e 247 246 1.0
e 252 255 2.0
e 252 247 3.0
e 256 257 4.0
e 256 252 1.0
e 258 259 42.0
e 259 301 15.0
e 259 260 87.0
e 259 262 10.0
e 260 278 6.0
e 260 264 68.0
e 260 268 91.0
e 260 319 20.0
e 269 279 3.0
e 269 256 1.0
e 279 280 17.0
e 281 282 2.0
e 281 269 1.0
e 283 284 4.0
e 283 281 2.0
e 287 288 2.0
e 287 283 1.0
e 289 291 53.0
e 289 294 8.0
e 289 296 82.0
e 289 308 50.0
e 303 304 4.0
e 303 287 2.0
e 305 306 10.0
e 305 303 2.0
e 306 309 1.0
e 310 311 1.0
e 310 305 1.0
e 312 314 4.0
e 312 310 1.0
